48
Conformer #1, E=-1927.369998295199
Ca  1.3532342  1.1071515  1.1604962
B  -0.8989709  1.4078225 -0.6134923
H  -0.0700556  0.8460916 -1.3263483
H  -1.4538997  2.2655664 -1.2482724
H  -1.7579483  0.6497273 -0.1216630
H  -0.3239355  1.9425965  0.3530115
B   2.2243981  1.9862760  3.3053352
H   1.2830670  2.5078370  2.6004389
H   2.7849314  1.0362288  2.7010287
H   3.0286656  2.8419683  3.5136918
H   1.7402195  1.5707914  4.3226282
C   4.6524986  2.9423393  0.4296034
C   4.1844471  1.6628465 -0.2856629
C   3.5390236  3.9593731  0.1053951
H   3.0315902  3.2938459 -1.9079589
H   1.5980166  3.4680095 -0.8366044
C   2.6537282  3.1899405 -0.8804259
H   2.9682059  4.1953662  1.0078188
H   3.9274192  4.8763545 -0.3315230
O   2.7803849  1.8283786 -0.4787525
H   4.6655722  1.5682436 -1.2701286
H   4.3476221  0.7545637  0.3030561
H   4.7156622  2.7756357  1.5057680
H   5.6224693  3.2660372  0.0571690
Ca -1.2892675 -1.1716784 -0.9097895
B   0.7825817 -1.4634394  1.0797351
H   0.0020240 -0.8085203  1.7673587
H   1.3154660 -2.2956772  1.7653964
H   1.6616724 -0.7878310  0.5090786
H   0.1552410 -2.0423675  0.1734988
B  -1.7182598 -1.8944753 -3.2303529
H  -0.9201609 -2.4721598 -2.4025114
H  -2.4177344 -1.0161878 -2.6633434
H  -2.4374176 -2.7346829 -3.6768019
H  -1.0545154 -1.3745257 -4.0851724
C  -4.6644316 -3.0120644 -0.9485761
C  -4.3080031 -1.8438423 -0.0127929
C  -3.6370578 -4.0983230 -0.5691800
H  -3.4639989 -3.6922482  1.5660153
H  -1.8739175 -3.7864788  0.7314279
C  -2.9184087 -3.4803606  0.6349675
H  -2.9263809 -4.2481707 -1.3865928
H  -4.1075174 -5.0455000 -0.3158249
O  -2.9585393 -2.0773871  0.3873763
H  -4.9466007 -1.8531549  0.8826369
H  -4.3591921 -0.8664415 -0.5029366
H  -4.5397981 -2.7163922 -1.9912216
H  -5.6882603 -3.3439219 -0.7875580
48
Conformer #2, E=-1927.3691027287957
Ca  1.3392311  1.1575170  1.2327112
B  -0.9138750  1.4748511 -0.5328902
H  -0.0890940  0.9150657 -1.2520441
H  -1.4693368  2.3372616 -1.1608446
H  -1.7726417  0.7160898 -0.0417205
H  -0.3337758  2.0031057  0.4341726
B   2.2308425  2.0270403  3.3713244
H   1.2839509  2.5561995  2.6796628
H   2.7821959  1.0793974  2.7549187
H   3.0398560  2.8788637  3.5771447
H   1.7558407  1.6061699  4.3907276
C   4.6593379  2.9399882  0.4655608
C   4.1536304  1.6795336 -0.2578299
C   3.5603975  3.9826504  0.1749055
H   3.0042039  3.3542206 -1.8374896
H   1.5936486  3.5416623 -0.7381871
C   2.6427607  3.2438297 -0.8047395
H   3.0104944  4.2174813  1.0905229
H   3.9588306  4.8977400 -0.2569110
O   2.7498609  1.8747899 -0.4233029
H   4.6151794  1.5888934 -1.2519933
H   4.3094514  0.7604233  0.3158859
H   4.7384024  2.7576272  1.5381294
H   5.6286689  3.2498366  0.0799156
Ca -1.3098608 -1.1132258 -0.8379075
B   0.7555153 -1.4134838  1.1363469
H  -0.0254984 -0.7673853  1.8317532
H   1.2887806 -2.2536719  1.8119422
H   1.6342982 -0.7305151  0.5740388
H   0.1286158 -1.9817373  0.2230762
B  -1.6274231 -1.9376078 -3.1532576
H  -2.3269268 -1.0562021 -2.5289009
H  -0.8090170 -2.5075302 -2.3867374
H  -1.0245707 -1.3706360 -4.0120740
H  -2.3794289 -2.7585096 -3.6029550
C  -4.6715415 -2.9671090 -0.8852149
C  -4.3203203 -1.8164502  0.0740047
C  -3.6312553 -4.0513681 -0.5365270
H  -3.4481861 -3.6909868  1.6060220
H  -1.8627539 -3.7511101  0.7595206
C  -2.9107643 -3.4531948  0.6764803
H  -2.9245178 -4.1761012 -1.3615382
H  -4.0908689 -5.0084926 -0.3012972
O  -2.9660759 -2.0455450  0.4603577
H  -4.9529348 -1.8518506  0.9730230
H  -4.3841590 -0.8289867 -0.3939845
H  -4.5565869 -2.6472168 -1.9218053
H  -5.6910396 -3.3124801 -0.7251404
48
Conformer #3, E=-1927.3685628064234
Ca  1.2926991  1.0403039  1.0335851
B  -0.8338543  0.9740023 -0.9510781
H   0.1273711  0.5123769 -1.5624319
H  -1.4691552  1.6836978 -1.6854767
H  -1.5946945  0.1175606 -0.4590653
H  -0.4290099  1.6595258  0.0064902
B   1.8315575  2.1077119  3.1993301
H   0.9329874  2.5004422  2.3666576
H   2.5604442  1.2091292  2.7061291
H   2.5078281  3.0534536  3.4652221
H   1.2740280  1.6702835  4.1687416
C   4.4741261  3.1580474  0.5434141
C   4.1556991  1.8453052 -0.1935339
C   3.3093158  4.0850209  0.1393942
H   2.9909955  3.3800383 -1.8991546
H   1.4797233  3.4431618 -0.9268694
C   2.5543844  3.2480534 -0.8984794
H   2.6627710  4.2767635  1.0002710
H   3.6537776  5.0290170 -0.2763230
O   2.7591153  1.9008744 -0.4808334
H   4.7075470  1.7874628 -1.1431243
H   4.3490648  0.9530566  0.4103667
H   4.4778345  2.9978252  1.6224068
H   5.4388128  3.5558840  0.2344864
Ca -0.9820896 -1.6905645 -0.9979281
B   1.0034140 -1.5266865  1.1061771
H   0.1441918 -0.8751075  1.6962598
H   1.5930355 -2.2158755  1.8961656
H   1.8303092 -0.8400290  0.4740048
H   0.4608938 -2.2672339  0.2652017
B  -1.0726250 -2.7102076 -3.2413792
H  -0.4056322 -3.2190750 -2.2655834
H  -1.7984566 -1.7567231 -2.8590322
H  -1.7667420 -3.5721783 -3.6859710
H  -0.2889866 -2.3036566 -4.0551651
C  -4.6562437 -1.8769968  0.1439641
C  -3.4486964 -2.1914472  1.0442001
C  -4.5344751 -2.9150997 -0.9904570
H  -3.7183647 -4.5875759  0.1456294
H  -2.7804967 -4.2175835 -1.3434253
C  -3.3660267 -3.7908030 -0.5255085
H  -4.2738646 -2.4195329 -1.9296989
H  -5.4450400 -3.4946086 -1.1235216
O  -2.5319795 -2.9022436  0.2134596
H  -3.7444965 -2.8434907  1.8790832
H  -2.9479135 -1.2952998  1.4240813
H  -4.5801232 -0.8646480 -0.2553111
H  -5.5904256 -1.9791215  0.6927411
48
Conformer #4, E=-1927.3667938314484
Ca  1.3317193  1.0123459  1.0596781
B  -0.7869394  0.9988379 -0.9222196
H   0.1733023  0.5138872 -1.5168324
H  -1.3810241  1.7382612 -1.6617687
H  -1.5867616  0.1615085 -0.4600393
H  -0.3833274  1.6584543  0.0538860
B   1.8198421  2.0207215  3.2727489
H   0.9813240  2.4389156  2.3912671
H   2.5655611  1.1183498  2.8127464
H   2.4913582  2.9521971  3.5950643
H   1.1960436  1.5779537  4.1983695
C   4.3714769  3.3245478  0.6886998
C   4.2124484  1.9546835  0.0060858
C   3.1846325  4.1388841  0.1341263
H   3.0979428  3.3058220 -1.8789564
H   1.5060220  3.3062523 -1.0428616
C   2.5850224  3.1941856 -0.9125972
H   2.4527108  4.3264946  0.9246875
H   3.4972509  5.0829325 -0.3059260
O   2.8462578  1.8900088 -0.4006273
H   4.8487012  1.8886333 -0.8885782
H   4.4139628  1.1124561  0.6755922
H   4.2911300  3.2219857  1.7717212
H   5.3293166  3.7769401  0.4392700
Ca -0.9811668 -1.6664982 -1.0156531
B   1.0204130 -1.5676854  1.0691485
H   0.1557308 -0.9342908  1.6709388
H   1.5587336 -2.3282576  1.8297126
H   1.8904486 -0.8628523  0.5203822
H   0.4928209 -2.2304215  0.1567858
B  -1.0910760 -2.7836342 -3.2414247
H  -1.7532630 -1.7729102 -2.7987644
H  -0.3893085 -3.3088602 -2.3393086
H  -0.3748913 -2.3877354 -4.1090636
H  -1.8779611 -3.5946663 -3.6472070
C  -4.5708577 -1.7442583  0.3643768
C  -3.3261665 -2.1809382  1.1565441
C  -4.5823803 -2.7077859 -0.8401472
H  -3.7881899 -4.4934013  0.1266745
H  -2.9311557 -4.0719161 -1.3970108
C  -3.4367366 -3.6720884 -0.5146840
H  -4.3568337 -2.1636421 -1.7614050
H  -5.5307547 -3.2292302 -0.9466700
O  -2.5073896 -2.8799398  0.2202044
H  -3.6024062 -2.8720860  1.9662938
H  -2.7520551 -1.3396635  1.5575757
H  -4.4646138 -0.7123925  0.0266929
H  -5.4711289 -1.8351620  0.9689674
48
Conformer #5, E=-1927.3678565085836
Ca  1.2996651  0.9261125  1.0131651
B  -0.8210149  0.8570856 -0.9643926
H   0.1713436  0.4194636 -1.5427674
H  -1.4331290  1.5741600 -1.7112105
H  -1.5913759 -0.0181798 -0.5229165
H  -0.4663747  1.5275442  0.0232785
B   1.8011906  1.9989510  3.1951916
H   0.9398530  2.3785558  2.3182615
H   2.5642378  1.1081492  2.7410935
H   2.4520844  2.9535750  3.4909923
H   1.2021232  1.5571343  4.1374536
C   4.3477504  3.2358495  0.5802506
C   4.1587086  1.8751973 -0.1130523
C   3.1445003  4.0610100  0.0796564
H   2.9811261  3.2535787 -1.9390989
H   1.4208524  3.2487839 -1.0453486
C   2.5034642  3.1315180 -0.9560728
H   2.4426852  4.2411033  0.8987511
H   3.4443758  5.0094682 -0.3597810
O   2.7783269  1.8201585 -0.4702531
H   4.7615713  1.8182779 -1.0311594
H   4.3813916  1.0239682  0.5381121
H   4.3066693  3.1199651  1.6641294
H   5.2975279  3.6881631  0.3015649
Ca -0.9420809 -1.8001536 -1.1126514
B   0.9967686 -1.6353743  1.0963829
H   0.1533421 -0.9607612  1.6833619
H   1.5122165 -2.3938034  1.8747245
H   1.8875792 -0.9716946  0.5299185
H   0.4471836 -2.3031503  0.2008329
B  -0.9857139 -2.7484213 -3.3804015
H  -0.4040632 -3.3067166 -2.3774102
H  -1.6854451 -1.7663871 -3.0224370
H  -1.6934599 -3.5667518 -3.8822824
H  -0.1357944 -2.3678612 -4.1383139
C  -4.3981534 -1.7651199  0.5788693
C  -3.1784489 -2.5272413  1.1256474
C  -4.6182944 -2.3961089 -0.8113778
H  -4.0192483 -4.4454290 -0.3694095
H  -3.2096082 -3.7688566 -1.8256056
C  -3.5986877 -3.5399361 -0.8305240
H  -4.3780498 -1.6738457 -1.5964244
H  -5.6344090 -2.7590100 -0.9473162
O  -2.5245209 -3.0680760 -0.0213517
H  -3.4961101 -3.3576403  1.7731171
H  -2.4695850 -1.8841475  1.6567931
H  -4.1718046 -0.7021804  0.4840481
H  -5.2625857 -1.8934940  1.2273740
48
Conformer #6, E=-1927.370483165174
Ca  1.2531670  1.0202028  1.5884165
B  -0.9596907  1.4036258 -0.1769192
H  -0.0986020  0.9408730 -0.9220311
H  -1.4984109  2.3321028 -0.7194386
H  -1.8292945  0.5850564  0.1811032
H  -0.4273555  1.8145021  0.8712118
B   2.1360772  2.0363681  3.6698248
H   2.4699799  0.9216215  3.1213197
H   1.1929427  2.5936546  3.0518419
H   1.7810317  1.7932462  4.7821658
H   3.0944638  2.7596986  3.6546784
C   3.7125540  3.6352725 -1.1262099
C   2.6215863  3.3533448 -0.0783138
C   4.6722853  2.4375387 -0.9724418
H   4.5009502  2.1248017  1.1785694
H   4.2628842  0.6206781  0.2224297
C   4.1032177  1.7013142  0.2448311
H   4.6160034  1.7925196 -1.8537345
H   5.7021642  2.7475714 -0.8117160
O   2.7017190  1.9532783  0.1852538
H   2.8267228  3.8986093  0.8545364
H   1.6117263  3.5807702 -0.4341992
H   3.2823330  3.6534454 -2.1284522
H   4.2082697  4.5838389 -0.9291852
Ca -1.2625836 -1.1287263 -0.7324444
B   0.7689478 -1.5721160  1.2433951
H  -0.0277068 -0.9990312  1.9836187
H   1.3501305 -2.4218329  1.8654277
H   1.6070931 -0.8218982  0.7052670
H   0.1521055 -2.1192169  0.3105690
B  -1.6062318 -1.6710411 -3.1368142
H  -0.8593944 -2.3111144 -2.3070293
H  -2.3379721 -0.8328399 -2.5501896
H  -2.2977783 -2.4731595 -3.6852875
H  -0.8922601 -1.0936522 -3.9104336
C  -4.5809837 -3.0633278 -1.1513111
C  -4.3194372 -1.9620531 -0.1090722
C  -3.5506789 -4.1515083 -0.7856180
H  -3.5292745 -3.9056948  1.3807206
H  -1.8859301 -3.8994474  0.6505463
C  -2.9300148 -3.6109106  0.5069900
H  -2.7840745 -4.2221922 -1.5621495
H  -4.0100391 -5.1258033 -0.6359425
O  -2.9930776 -2.1944255  0.3626314
H  -5.0148027 -2.0543229  0.7380650
H  -4.3657369 -0.9515314 -0.5272534
H  -4.3966461 -2.6861693 -2.1582055
H  -5.6034744 -3.4299125 -1.0849037
48
Conformer #7, E=-1927.3713919656232
Ca  1.2328464  1.0737015  1.6541388
B  -1.0005566  1.4170364 -0.1222322
H  -0.1343950  0.9648635 -0.8679597
H  -1.5659774  2.3245025 -0.6730687
H  -1.8471329  0.5827554  0.2542389
H  -0.4700892  1.8553336  0.9156881
B   2.2210414  2.0201496  3.7019530
H   1.2291985  2.5325863  3.0626839
H   2.6063547  0.9445282  3.1760766
H   3.1134237  2.8106545  3.6669704
H   1.8637355  1.7990618  4.8268504
C   3.6501327  3.5693389 -1.2315144
C   2.5843616  3.3457456 -0.1443538
C   4.6118719  2.3790367 -1.0377787
H   4.4919715  2.1806087  1.1302296
H   4.2291947  0.6287353  0.2608024
C   4.0713887  1.7094364  0.2299480
H   4.5336410  1.6885721 -1.8821913
H   5.6456849  2.6945930 -0.9183697
O   2.6691605  1.9613377  0.1907565
H   2.8125267  3.9389497  0.7532282
H   1.5665004  3.5565552 -0.4874452
H   3.1959437  3.5356772 -2.2227203
H   4.1515643  4.5257604 -1.0967734
Ca -1.2359148 -1.1135795 -0.6718178
B   0.7497489 -1.5158665  1.3593839
H  -0.0581305 -0.9427105  2.0872841
H   1.3418056 -2.3458842  1.9975502
H   1.5780885 -0.7620110  0.8112494
H   0.1445617 -2.0881033  0.4340343
B  -1.4931451 -1.6355044 -3.0835356
H  -0.7719964 -2.2758912 -2.2315660
H  -2.2610788 -0.8158843 -2.5172721
H  -2.1492332 -2.4400227 -3.6706915
H  -0.7563120 -1.0375463 -3.8191603
C  -4.5530245 -3.0253477 -1.2146548
C  -4.3022892 -1.9588927 -0.1342474
C  -3.5341032 -4.1302036 -0.8675394
H  -3.5454399 -3.9528208  1.3055487
H  -1.8908332 -3.9327191  0.6015265
C  -2.9310640 -3.6340137  0.4509614
H  -2.7557797 -4.1806665 -1.6339242
H  -4.0006796 -5.1061611 -0.7558324
O  -2.9846851 -2.2133584  0.3504151
H  -5.0113157 -2.0739181  0.6986624
H  -4.3369088 -0.9354678 -0.5209983
H  -4.3510086 -2.6177131 -2.2061631
H  -5.5782733 -3.3881576 -1.1757254
48
Conformer #8, E=-1927.3710052195602
Ca  1.2811008  1.0309342  1.7040685
B  -0.9594955  1.4834901 -0.0378205
H  -0.1061583  1.0219045 -0.7925126
H  -1.4828895  2.4315510 -0.5611324
H  -1.8424333  0.6722119  0.3037866
H  -0.4204407  1.8641363  1.0182605
B   2.4190939  1.8853834  3.7167823
H   1.3101785  2.3243195  3.2344436
H   2.8319045  0.8771377  3.0882905
H   3.2223542  2.7612043  3.6158939
H   2.2311552  1.5812586  4.8631368
C   3.4447677  3.7121589 -1.2009783
C   2.5162844  3.4133185 -0.0108551
C   4.3967242  2.4986683 -1.2236590
H   4.5402880  2.1254936  0.9197354
H   4.1385438  0.6529471 -0.0307777
C   4.0018601  1.7343635  0.0442282
H   4.2000335  1.8803641 -2.1039469
H   5.4440383  2.7911170 -1.2091549
O   2.6113311  2.0052785  0.2000112
H   2.8661463  3.9285733  0.8956288
H   1.4687971  3.6635006 -0.2067455
H   2.8713923  3.7648670 -2.1274623
H   3.9798090  4.6483717 -1.0541199
Ca -1.2505466 -1.0357730 -0.6391001
B   0.7049426 -1.5328637  1.3933339
H  -0.0663680 -0.9409102  2.1454553
H   1.2693948 -2.4012981  2.0048338
H   1.5573604 -0.8041055  0.8481811
H   0.0618438 -2.0583107  0.4658061
B  -1.3850352 -1.6458939 -3.0514933
H  -2.1326488 -0.8071678 -2.4241057
H  -0.6635157 -2.3056203 -2.2600868
H  -0.6838646 -1.0187524 -3.7846419
H  -2.0980680 -2.4015064 -3.6533690
C  -4.5753518 -2.9158166 -1.2701684
C  -4.3458669 -1.8607502 -0.1739723
C  -3.5695451 -4.0283639 -0.9096304
H  -3.6316517 -3.8715211  1.2641792
H  -1.9607527 -3.8520025  0.5997320
C  -2.9958719 -3.5473298  0.4274599
H  -2.7734904 -4.0749762 -1.6578309
H  -4.0426901 -5.0032820 -0.8183417
O  -3.0411902 -2.1255647  0.3392753
H  -5.0749092 -1.9805508  0.6407874
H  -4.3670558 -0.8335666 -0.5516207
H  -4.3481978 -2.4996994 -2.2526717
H  -5.6027341 -3.2744835 -1.2589849
48
Conformer #9, E=-1927.3685249181146
Ca  1.2095090  1.0288616  1.4435727
B  -0.9370084  1.4121176 -0.3474716
H  -0.0634244  0.9272118 -1.0633788
H  -1.4676658  2.3221249 -0.9279074
H  -1.8115752  0.6040524  0.0221368
H  -0.4222578  1.8568220  0.6956239
B   1.9220782  2.0499244  3.6154273
H   2.2664516  0.9381014  3.0674624
H   1.0981065  2.6816903  2.9055568
H   1.4124677  1.7881524  4.6614868
H   2.9105021  2.7174707  3.7545015
C   3.9211565  3.6320740 -1.0550532
C   2.7012735  3.3550479 -0.1589939
C   4.8794623  2.4703385 -0.7214131
H   4.4157099  2.2301534  1.3954843
H   4.3519554  0.6860625  0.4762535
C   4.1637337  1.7614591  0.4330739
H   4.9636271  1.7926117 -1.5755189
H   5.8684911  2.8170775 -0.4312451
O   2.7786188  1.9684516  0.1687920
H   2.7596996  3.9395052  0.7708447
H   1.7460092  3.5387557 -0.6609056
H   3.6355892  3.6010988 -2.1073848
H   4.3604067  4.6017281 -0.8288652
Ca -1.3231844 -1.1399859 -0.8311303
B   0.7594238 -1.5789018  1.0892882
H  -0.0771731 -1.0388056  1.8099943
H   1.3296002 -2.4346547  1.7132293
H   1.6054673 -0.8009063  0.6057290
H   0.1914191 -2.1117871  0.1180095
B  -1.7880049 -1.6659595 -3.2262112
H  -1.0466702 -2.3128243 -2.3967586
H  -2.4863549 -0.7972016 -2.6433558
H  -2.5105692 -2.4572381 -3.7498835
H  -1.0701945 -1.1226169 -4.0206591
C  -4.5523814 -3.2086344 -1.0702223
C  -4.3516252 -2.0003675 -0.1389531
C  -3.4815287 -4.2098088 -0.5903052
H  -3.4989302 -3.7526655  1.5415068
H  -1.8479403 -3.7460785  0.8287911
C  -2.9014020 -3.5188328  0.6483677
H  -2.7025255 -4.3225314 -1.3493357
H  -3.9008892 -5.1839283 -0.3496951
O  -3.0228501 -2.1273606  0.3649919
H  -5.0534421 -2.0396473  0.7069774
H  -4.4354561 -1.0385647 -0.6547836
H  -4.3711316 -2.9240409 -2.1076327
H  -5.5591101 -3.6112716 -0.9771523