48
Conformer #1, E=-1928.798414002449
Ca  1.1206650  1.2113530  1.1349820
B  -1.2148240  1.4792260 -0.3352310
H  -0.2311850  0.9456010 -0.8686710
H  -1.8836040  1.9927430 -1.1964560
H  -1.8610340  0.6445360  0.2960740
H  -0.8206010  2.3213170  0.4637660
B   1.8846100  2.1121230  3.3536580
H   1.4828240  3.0194620  2.6162030
H   2.8075670  1.5341330  2.7703120
H   2.2460380  2.5479310  4.4170300
H   0.9596820  1.3040910  3.4788100
C   4.8634310  2.7763460  0.1232660
C   4.0609410  1.5644330 -0.3640950
C   3.8980800  3.9781580 -0.0491800
H   2.7938610  3.4152460 -1.8551230
H   1.7300810  3.8330670 -0.4803500
C   2.6877430  3.3845510 -0.7627450
H   3.6028380  4.3736950  0.9266340
H   4.3392610  4.7906480 -0.6317790
O   2.6706940  1.9921200 -0.3454910
H   4.3175520  1.2888310 -1.3946780
H   4.1460220  0.6815220  0.2765520
H   5.1474700  2.6590540  1.1719010
H   5.7752720  2.8930620 -0.4675450
Ca -1.0569410 -1.2756810 -0.7369180
B   0.9580280 -1.4271570  0.9354060
H  -0.0162770 -0.8515150  1.4377380
H   1.8935630 -1.3729170  1.6995960
H   1.2520050 -0.8389560 -0.1130600
H   0.6165640 -2.5590420  0.6500680
B  -1.2455070 -1.9402020 -3.1367030
H  -0.9946880 -2.9114440 -2.4132580
H  -2.2950860 -1.4329070 -2.7258580
H  -1.3400130 -2.2712120 -4.2908730
H  -0.3439500 -1.1134830 -2.9691620
C  -4.9043790 -2.9402270 -0.7410800
C  -4.2025070 -1.8440850  0.0751260
C  -3.9426460 -4.1529160 -0.6757040
H  -3.2794790 -3.9973580  1.4032930
H  -1.9291400 -4.1728760  0.2420620
C  -2.9304760 -3.7571050  0.3899990
H  -3.4365630 -4.2918270 -1.6355170
H  -4.4550930 -5.0824860 -0.4155300
O  -2.8367030 -2.3119040  0.2682310
H  -4.6589240 -1.7118750  1.0637630
H  -4.1525800 -0.8745000 -0.4297560
H  -5.0591410 -2.6231570 -1.7751450
H  -5.8795850 -3.1712510 -0.3051110
48
Conformer #2, E=-1928.797151277385
Ca  1.1638220  1.2172660  1.1971580
B  -1.1410230  1.5278660 -0.2635050
H  -0.1714710  0.9483300 -0.7740990
H  -1.7701460  2.0634910 -1.1410660
H  -1.8348450  0.7273050  0.3603850
H  -0.7331030  2.3648680  0.5353790
B   1.9568210  2.0913200  3.3945920
H   1.5561480  3.0026940  2.6609310
H   2.8625710  1.5035810  2.7939250
H   2.3308460  2.5149540  4.4578600
H   1.0233530  1.2933180  3.5263860
C   4.8372960  2.8937270  0.2222050
C   4.1027530  1.6481120 -0.2834020
C   3.8472020  4.0598350 -0.0384630
H   2.8014550  3.4092900 -1.8499300
H   1.6945130  3.8205690 -0.5078720
C   2.6733850  3.4009780 -0.7595210
H   3.5135150  4.4954740  0.9072650
H   4.2861580  4.8538670 -0.6475460
O   2.6977390  2.0197370 -0.3091830
H   4.4034210  1.3805890 -1.3044380
H   4.2058090  0.7717710  0.3637220
H   5.0553380  2.8076670  1.2896280
H   5.7819250  3.0264830 -0.3108720
Ca -1.0890110 -1.2478430 -0.6273580
B   0.9245420 -1.4491830  1.0144990
H  -0.0297740 -0.8247070  1.4982760
H   1.8250120 -1.4950380  1.8174240
H   1.2960200 -0.8571450 -0.0058170
H   0.5180020 -2.5481600  0.6797520
B  -1.2298910 -1.9181260 -3.0340300
H  -2.3011630 -1.4480250 -2.6354220
H  -0.9536180 -2.8853620 -2.3149780
H  -0.3574860 -1.0621040 -2.8601510
H  -1.3026370 -2.2458010 -4.1911780
C  -4.9165250 -2.8895810 -0.7155060
C  -4.2425180 -1.8213820  0.1577590
C  -3.9680650 -4.1129740 -0.6365840
H  -3.3393930 -3.9961810  1.4564210
H  -1.9701890 -4.1489180  0.3145760
C  -2.9737620 -3.7357800  0.4541040
H  -3.4435410 -4.2511070 -1.5864770
H  -4.4956040 -5.0386670 -0.3936230
O  -2.8792170 -2.2884720  0.3633610
H  -4.7226730 -1.7311220  1.1399930
H  -4.1889110 -0.8323700 -0.3078020
H  -5.0179860 -2.5453750 -1.7475200
H  -5.9135600 -3.1208250 -0.3324090
48
Conformer #6, E=-1928.8013295053615
Ca  1.1396900  1.1291730  1.8658120
B  -1.2456920  1.6163430  0.4476930
H  -0.2362730  1.1983580 -0.1374200
H  -1.8106640  2.3928700 -0.2815330
H  -1.9774450  0.6762000  0.7510260
H  -0.9071970  2.1727370  1.4880170
B   2.0871810  2.0532800  3.9968820
H   2.5460460  0.9354970  3.7381460
H   0.8558550  1.9487860  4.0507760
H   2.5305840  2.4724960  5.0357020
H   2.3536260  2.7952420  3.0492190
C   3.5843590  3.1965260 -1.4430080
C   2.2521550  2.6388950 -0.9755090
C   4.5577280  2.0855310 -1.0355940
H   4.4062410  2.3070920  1.1309550
H   4.1953580  0.6188740  0.5694860
C   4.0202900  1.6716400  0.3244440
H   4.5016480  1.2490940 -1.7412590
H   5.5948270  2.4253800 -0.9748680
O   2.5714970  1.8802310  0.2372470
H   1.5128250  3.4006040 -0.7107080
H   1.8205240  1.9456800 -1.7082600
H   3.5841190  3.3934200 -2.5183170
H   3.8207640  4.1264740 -0.9135410
Ca -0.9903870 -1.0065860 -0.5109950
B   0.9390830 -1.4224010  1.2177370
H  -0.0701700 -0.9236450  1.7315470
H   1.8348390 -1.4283800  2.0338330
H   1.2721780 -0.7117470  0.2625010
H   0.6464850 -2.5248680  0.7999130
B  -0.9963820 -1.2452170 -2.9958150
H  -0.7647470 -2.3209800 -2.4336330
H  -2.0878430 -0.8417730 -2.5814250
H  -0.9941360 -1.3652900 -4.1942840
H  -0.1392140 -0.4424820 -2.6201010
C  -4.8184680 -2.9314770 -0.8816780
C  -4.1317290 -1.8763500  0.0035670
C  -3.7219990 -3.9813060 -1.1567080
H  -3.0784560 -4.2318240  0.9161220
H  -1.7156950 -4.0687380 -0.2330640
C  -2.7439320 -3.7609420 -0.0184430
H  -3.2256420 -3.7843010 -2.1124870
H  -4.1125500 -5.0021930 -1.1703000
O  -2.7468900 -2.3175460  0.1608650
H  -4.5833320 -1.8131660  1.0000870
H  -4.1060200 -0.8765080 -0.4415860
H  -5.1942060 -2.4936250 -1.8093430
H  -5.6619420 -3.3770720 -0.3475770
48
Conformer #7, E=-1928.800428276864
Ca  1.1162290  1.1286900  1.8506870
B  -1.2288300  1.5945980  0.4074160
H  -0.2128560  1.1832530 -0.1699610
H  -1.8163850  2.3331320 -0.3434070
H  -1.9393170  0.6491560  0.7431640
H  -0.9029190  2.1961530  1.4262470
B   2.0907850  2.1113180  3.9387720
H   0.8561080  2.0584070  3.9894270
H   2.5005730  0.9627800  3.7340970
H   2.3847700  2.7963900  2.9592040
H   2.5479470  2.5595340  4.9592520
C   3.6104770  3.2164330 -1.4075380
C   2.2651330  2.6554190 -0.9836320
C   4.5720560  2.1131440 -0.9527440
H   4.3493750  2.3414800  1.2085220
H   4.1457110  0.6543350  0.6424080
C   3.9849720  1.7081740  0.3906880
H   4.5448350  1.2708380 -1.6530090
H   5.6046120  2.4576780 -0.8545510
O   2.5414630  1.9307480  0.2566120
H   1.5068880  3.4139080 -0.7677960
H   1.8712350  1.9435080 -1.7202690
H   3.6503270  3.4043350 -2.4835640
H   3.8210420  4.1512640 -0.8755320
Ca -0.9638310 -1.0332550 -0.5356140
B   0.9542650 -1.4394180  1.1794720
H  -0.0632930 -0.9585860  1.6945540
H   1.8501040 -1.4450230  1.9946650
H   1.2774640 -0.7140020  0.2318440
H   0.6717550 -2.5396570  0.7479410
B  -0.9775960 -1.2651520 -3.0398160
H  -0.7493170 -2.3351150 -2.4638470
H  -2.0604880 -0.8458500 -2.6174360
H  -0.9960320 -1.4068110 -4.2360840
H  -0.1053270 -0.4626000 -2.6936360
C  -4.8425840 -2.9202960 -0.8020120
C  -4.0909170 -1.8606370  0.0234400
C  -3.7716380 -3.9753530 -1.1429940
H  -3.0551790 -4.2523940  0.9010030
H  -1.7334760 -4.1075940 -0.2988210
C  -2.7462830 -3.7815660 -0.0423630
H  -3.3129240 -3.7651300 -2.1148990
H  -4.1737520 -4.9916740 -1.1573320
O  -2.7143580 -2.3398820  0.1433890
H  -4.5030760 -1.7505000  1.0326850
H  -4.0533960 -0.8777980 -0.4579900
H  -5.2835370 -2.4883010 -1.7032940
H  -5.6454310 -3.3610120 -0.2047040
48
Conformer #8, E=-1928.8013919462308
Ca  1.1571160  1.1702510  1.8973220
B  -1.3331100  1.6313160  0.6684250
H  -0.3414280  1.3040770  0.0002890
H  -1.9176440  2.4965280  0.0640970
H  -2.0617700  0.6616760  0.8623980
H  -0.9748900  2.0530170  1.7647680
B   2.2738200  1.9288790  4.0149420
H   1.1099570  1.5644420  4.2151190
H   2.8765460  0.9826680  3.4983090
H   2.2422570  2.8443430  3.1878480
H   2.8032000  2.2775620  5.0395900
C   3.4723510  3.0437690 -1.6298890
C   2.1775360  2.4918640 -1.0600830
C   4.5197260  2.1160790 -1.0070180
H   4.3088750  2.7655700  1.0663360
H   4.2550370  0.9867570  0.8665770
C   3.9949270  1.9464390  0.4083360
H   4.5358120  1.1520000 -1.5276760
H   5.5275930  2.5391210 -1.0159720
O   2.5339450  2.0057460  0.2772700
H   1.3845550  3.2366220 -0.9462840
H   1.8031060  1.6410110 -1.6432250
H   3.4736070  3.0208380 -2.7227440
H   3.6278790  4.0763460 -1.2973380
Ca -1.0151760 -0.9119260 -0.4855290
B   0.9551260 -1.3606820  1.1563330
H  -0.0468500 -0.9061750  1.7234720
H   1.8799680 -1.3749700  1.9391930
H   1.2413770 -0.6071980  0.2178460
H   0.6756900 -2.4539100  0.7068240
B  -0.8706020 -1.0024710 -2.9847500
H  -1.9996510 -0.6654330 -2.6150340
H  -0.6267060 -2.1026470 -2.4778900
H  -0.0678040 -0.1920500 -2.5140850
H  -0.7962160 -1.0469610 -4.1863760
C  -4.9662890 -2.9380450 -0.6032730
C  -4.1434430 -1.7514320 -0.1140640
C  -3.9128960 -3.8401860 -1.2550290
H  -2.8746580 -4.2889590  0.6074160
H  -1.7670020 -3.8936880 -0.7393730
C  -2.7478940 -3.6838770 -0.2993020
H  -3.6383530 -3.4652670 -2.2481180
H  -4.2371460 -4.8804280 -1.3436280
O  -2.7789030 -2.2708930  0.0793650
H  -4.4864460 -1.3376510  0.8384940
H  -4.0922350 -0.9507750 -0.8632830
H  -5.7518380 -2.6246590 -1.2954580
H  -5.4324830 -3.4541840  0.2429720