48
-47.6322609794 converged=true
Ca 1.35323421666267162955 1.10715147842320527083 1.16049615979498121909
B  -0.89897092570162584479 1.40782253995313122452 -0.61349234918309969444
H  -0.07005559059236105002 0.84609164923437396588 -1.32634825067675077293
H  -1.45389965997357184513 2.26556642352079595781 -1.24827243524017883480
H  -1.75794834057990501108 0.64972726849140305383 -0.12166297843177761862
H  -0.32393550653120600780 1.94259646533013508041 0.35301149092016476105
B  2.22439808923917725636 1.98627604399904744703 3.30533522037587745857
H  1.28306699803847723551 2.50783704550653396836 2.60043894674610376327
H  2.78493139784724652586 1.03622875941395342636 2.70102871413911804765
H  3.02866555751000987584 2.84196832700698331919 3.51369180756400556476
H  1.74021953503379434025 1.57079143083795136349 4.32262823856061118022
C  4.65249859181413683018 2.94233933903190347792 0.42960343120294525177
C  4.18444709686523452774 1.66284648909732490907 -0.28566290652837206254
C  3.53902364009841718939 3.95937309542566406861 0.10539513207407998074
H  3.03159020331375028690 3.29384588156961966021 -1.90795887367835148574
H  1.59801660442834281284 3.46800951549192193468 -0.83660444212667517405
C  2.65372820044919999205 3.18994045143823390376 -0.88042587210157674527
H  2.96820592017858597700 4.19536619515691366900 1.00781882944388168077
H  3.92741919517193327493 4.87635451058691327120 -0.33152296406363257475
O  2.78038486704220355605 1.82837857304828177440 -0.47875252369629428539
H  4.66557221199898997099 1.56824356571993406284 -1.27012863192158764747
H  4.34762206607424861460 0.75456366560101950647 0.30305611493898698683
H  4.71566217241937035709 2.77563567310219916351 1.50576802990153746364
H  5.62246928342478291540 3.26603722098329063428 0.05716902883936895302
Ca -1.28926750177120119645 -1.17167839161712872276 -0.90978952198078288927
B  0.78258170450437780641 -1.46343938508175130941 1.07973510914490944401
H  0.00202397096403982880 -0.80852027686484484459 1.76735865319167029241
H  1.31546598884344567715 -2.29567717846620178435 1.76539643117061273436
H  1.66167237482964069706 -0.78783096380677608561 0.50907855834445714382
H  0.15524101082142838237 -2.04236746192280671508 0.17349877167439764492
B  -1.71825978549793845218 -1.89447528488834082694 -3.23035291245395494997
H  -0.92016092274202310186 -2.47215979301130950319 -2.40251136702629164432
H  -2.41773440096319625070 -1.01618777629586354294 -2.66334342270600066271
H  -2.43741756062324421706 -2.73468293614685364901 -3.67680192254544513375
H  -1.05451537651059168432 -1.37452572949487450416 -4.08517237776124986226
C  -4.66443160529719058616 -3.01206441823845150196 -0.94857609521254326879
C  -4.30800308800161868561 -1.84384231173842261242 -0.01279291451222441985
C  -3.63705777265237450990 -4.09832304807430070070 -0.56917997596665470539
H  -3.46399892526904285006 -3.69224817324543730379 1.56601532051482772445
H  -1.87391750115197441851 -3.78647879467962056310 0.73142786980213392312
C  -2.91840870604374780228 -3.48036059012372733790 0.63496749894777571033
H  -2.92638092043984121560 -4.24817066898183171020 -1.38659284647778280330
H  -4.10751743270008518039 -5.04549995213826552032 -0.31582489032020966135
O  -2.95853932326157531563 -2.07738714994592577057 0.38737627082166686820
H  -4.94660073982370818158 -1.85315493212712967264 0.88263690305799080704
H  -4.35919208008417768951 -0.86644153452246486236 -0.50293656405449393976
H  -4.53979810801286731703 -2.71639224196735407091 -1.99122161014552223612
H  -5.68826033500929462150 -3.34392189561471742110 -0.78755796006369693796
48
-47.6320897723 converged=true
Ca 1.33923107632688198620 1.15751701579964660915 1.23271120807019540777
B  -0.91387504508672567916 1.47485113630469366619 -0.53289024973539433905
H  -0.08909398202455093285 0.91506566901358477040 -1.25204405198147816769
H  -1.46933684389362606559 2.33726156900845127851 -1.16084459775993664721
H  -1.77264172781090989517 0.71608975178875544643 -0.04172050735748911166
H  -0.33377583450338693671 2.00310572380720541830 0.43417259939132391011
B  2.23084245964714389387 2.02704033599264432652 3.37132442808520460531
H  1.28395086185338858087 2.55619946582392687517 2.67966282334241601149
H  2.78219590906581482059 1.07939742672581528993 2.75491865522371437436
H  3.03985604803548481456 2.87886365126537135950 3.57714465183263197190
H  1.75584070734178210316 1.60616989678968447031 4.39072760136122930419
C  4.65933793744123558866 2.93998821753266970092 0.46556081956832306989
C  4.15363038129133599341 1.67953363119206322551 -0.25782994086132693390
C  3.56039747559394115228 3.98265043813435948294 0.17490551510693735926
H  3.00420390534420445050 3.35422057234538462112 -1.83748960857695831095
H  1.59364863404940204639 3.54166232111263745708 -0.73818711597121977608
C  2.64276073227362395812 3.24382968104663671483 -0.80473950099627966637
H  3.01049442446230930415 4.21748130555139510989 1.09052292436371200957
H  3.95883062558740039805 4.89774004191173339962 -0.25691098264344847113
O  2.74986085579846983862 1.87478992344753780941 -0.42330294749062125081
H  4.61517938899230362182 1.58889340760618469339 -1.25199326615378603300
H  4.30945135011594615548 0.76042332439519200182 0.31588594168558459252
H  4.73840244447385394722 2.75762724847179585552 1.53812936019042711955
H  5.62866894353277924523 3.24983655524920722613 0.07991557627961265453
Ca -1.30986083490879035018 -1.11322579366169538417 -0.83790745220787310465
B  0.75551528946104107298 -1.41348381791769539539 1.13634692000065062878
H  -0.02549837080825684277 -0.76738533181859003296 1.83175324781032622390
H  1.28878060482355616401 -2.25367188919191230312 1.81194218498902248626
H  1.63429820764514599496 -0.73051512845540644836 0.57403882256305172049
H  0.12861580606417155614 -1.98173725335047445917 0.22307618561084355258
B  -1.62742306466429953460 -1.93760775340805024847 -3.15325763121300672864
H  -2.32692684594389787023 -1.05620208125768200169 -2.52890091340638889505
H  -0.80901698672594091200 -2.50753022576254247511 -2.38673736794991464549
H  -1.02457072594004938715 -1.37063595133639504198 -4.01207399966347999509
H  -2.37942894466449361701 -2.75850964096718564988 -3.60295502539156009547
C  -4.67154147023656118876 -2.96710903406155601658 -0.88521491632025572915
C  -4.32032032989683312252 -1.81645015737806359013 0.07400466199660410416
C  -3.63125528814793252508 -4.05136805503687913443 -0.53652701434482485965
H  -3.44818611253972795438 -3.69098678795578338807 1.60602196806388786143
H  -1.86275394509676028854 -3.75111010301080494145 0.75952058729186266994
C  -2.91076425357367085667 -3.45319479260119521769 0.67648025641725240131
H  -2.92451781436532654013 -4.17610116591887248205 -1.36153822205089980457
H  -4.09086888353803246332 -5.00849262241154580266 -0.30129716035573061994
O  -2.96607593155525695039 -2.04554496706608990308 0.46035773681928238155
H  -4.95293481235731736234 -1.85185063073289857272 0.97302299722257845627
H  -4.38415900700005689572 -0.82898665554712147596 -0.39398448879309677650
H  -4.55658688328243943744 -2.64721677494159557398 -1.92180528853550791624
H  -5.69103962738363300389 -3.31248006470630640408 -0.72514039715392475394
48
-47.6303972274 converged=true
Ca 1.29269906481695429079 1.04030387538042834450 1.03358513023072995374
B  -0.83385430568778384774 0.97400232708816381066 -0.95107808379191860482
H  0.12737109555163500518 0.51237690074080222136 -1.56243187369024272293
H  -1.46915522827193867350 1.68369775229807272510 -1.68547672810770587937
H  -1.59469447851739887234 0.11756059495591891784 -0.45906531903052294474
H  -0.42900985595942930928 1.65952584454036156103 0.00649020935592823506
B  1.83155749755314034566 2.10771186733745041764 3.19933006466073077689
H  0.93298735989173331440 2.50044222559666406980 2.36665760112151346561
H  2.56044417648478983551 1.20912919950082708986 2.70612910680857332579
H  2.50782811293833107769 3.05345359489973455780 3.46522205524490267692
H  1.27402798365295533145 1.67028349446452084592 4.16874157723389515695
C  4.47412607420454300211 3.15804736090071358490 0.54341413186509290867
C  4.15569905558182561833 1.84530520678698328751 -0.19353387137057753709
C  3.30931576012078387805 4.08502092348421008694 0.13939420977945288227
H  2.99099546525016357634 3.38003831990140479746 -1.89915459663860186623
H  1.47972332735820488736 3.44316180977710750710 -0.92686940027642938933
C  2.55438439303020192739 3.24805338378354013784 -0.89847939998293679942
H  2.66277101976263264049 4.27676351655181186118 1.00027098306859607568
H  3.65377758648579442635 5.02901704793764103840 -0.27632301728572877808
O  2.75911527365497066810 1.90087439509589462006 -0.48083340436768595705
H  4.70754703049553402394 1.78746278326005070269 -1.14312426760580176932
H  4.34906475448623552893 0.95305657410798783058 0.41036672329871470843
H  4.47783449397366783984 2.99782522023307462788 1.62240676710597564458
H  5.43881281924334825106 3.55588399316186087873 0.23448640017870206465
Ca -0.98208959051395883222 -1.69056452842422344496 -0.99792812020370036397
B  1.00341395144248690663 -1.52668650345280054736 1.10617713827198271836
H  0.14419176402538202986 -0.87510749183988445488 1.69625982425791765884
H  1.59303552636988055013 -2.21587550585370030021 1.89616560091228825158
H  1.83030915646839931199 -0.84002900663109525414 0.47400481486186551994
H  0.46089379469837293835 -2.26723392586913652380 0.26520165816789442736
B  -1.07262504564493865722 -2.71020763552121168871 -3.24137918458186868875
H  -0.40563222536140386421 -3.21907497610300019630 -2.26558339786569895580
H  -1.79845657329895991516 -1.75672307576097264104 -2.85903217641218354572
H  -1.76674195051855020822 -3.57217826835688390119 -3.68597098822395841111
H  -0.28898660101909906528 -2.30365655105327915564 -4.05516509175057127123
C  -4.65624366065129802195 -1.87699681103751236932 0.14396408731188600760
C  -3.44869636495668441256 -2.19144722952562087670 1.04420005766175116868
C  -4.53447513362790388669 -2.91509965859389685860 -0.99045696411340156118
H  -3.71836469394868540661 -4.58757586697491337446 0.14562939060952240222
H  -2.78049667332547345566 -4.21758350089802647176 -1.34342527029526470628
C  -3.36602669624421135808 -3.79080302725067408431 -0.52550849275841049479
H  -4.27386460027194203803 -2.41953294065074109298 -1.92969893326223296270
H  -5.44503997219410162955 -3.49460864417339234222 -1.12352156927514768014
O  -2.53197951249826003206 -2.90224361205133174479 0.21345958332719114359
H  -3.74449648725838013519 -2.84349067782068765098 1.87908320708255249798
H  -2.94791352024585062708 -1.29529982056039383309 1.42408129337581224050
H  -4.58012323717564839853 -0.86464796506527830111 -0.25531114290486606189
H  -5.59042558871590511416 -1.97912152874967950389 0.69274105496901539070
48
-47.6303524595 converged=true
Ca 1.33171931354771322376 1.01234586938943782464 1.05967808568739108033
B  -0.78693937900808597075 0.99883793824728683841 -0.92221963709063603520
H  0.17330234095610533296 0.51388719663936133220 -1.51683243556994806767
H  -1.38102406227652996229 1.73826123688627975916 -1.66176869030390306214
H  -1.58676156732226947277 0.16150853426697783788 -0.46003925441794252249
H  -0.38332743927614659762 1.65845426820982955185 0.05388602156035382507
B  1.81984206721758434711 2.02072150123595228877 3.27274885828010431155
H  0.98132400901730476583 2.43891559340698682590 2.39126713670169444015
H  2.56556110572105833256 1.11834981887647511023 2.81274641374779221792
H  2.49135823165160941173 2.95219705396380760476 3.59506430425930778583
H  1.19604361978896656105 1.57795365768912820847 4.19836949043985008245
C  4.37147690974932867647 3.32454778812524587295 0.68869979524444324692
C  4.21244841592868279889 1.95468351863021250203 0.00608576802034104664
C  3.18463249898101352642 4.13888413990571013557 0.13412626381367451223
H  3.09794275874533342474 3.30582203455258927249 -1.87895643075996487958
H  1.50602195956084083939 3.30625225106874109926 -1.04286161744918026706
C  2.58502240000142435861 3.19418560207926294225 -0.91259722555746758399
H  2.45271077814475146894 4.32649464180875664709 0.92468747979480192534
H  3.49725087950435709061 5.08293246307458357336 -0.30592595736641875481
O  2.84625776906384508891 1.89000884436304539271 -0.40062729940952562790
H  4.84870120630714218635 1.88863334144805716797 -0.88857819952715033640
H  4.41396279727553420003 1.11245614075375787166 0.67559218497091211297
H  4.29113001552997985755 3.22198566230273053534 1.77172120804172394948
H  5.32931660135477258677 3.77694006160174833298 0.43927004258592394770
Ca -0.98116679623000713217 -1.66649818890683776296 -1.01565305019074347825
B  1.02041301510980808587 -1.56768540679397117010 1.06914850165878294597
H  0.15573078733725673195 -0.93429082797101270508 1.67093875126117064056
H  1.55873358228565161987 -2.32825763761980475408 1.82971257023351507875
H  1.89044857785875786149 -0.86285230417825864446 0.52038219298895727061
H  0.49282085331800856709 -2.23042147998947326570 0.15678576044312350635
B  -1.09107598566945007690 -2.78363417843490301706 -3.24142471148772814971
H  -1.75326301117366312177 -1.77291015847166666397 -2.79876444817427261214
H  -0.38930846957236503458 -3.30886021020233878076 -2.33930863481092954359
H  -0.37489126815961426598 -2.38773543621787531777 -4.10906355206854279061
H  -1.87796109103659025763 -3.59466629669936788005 -3.64720695971792840950
C  -4.57085767143881405161 -1.74425832122242985278 0.36437683525661973549
C  -3.32616653015640917346 -2.18093821788543174023 1.15654409663637647299
C  -4.58238031456858507795 -2.70778587770029544046 -0.84014717645837910798
H  -3.78818992678080324055 -4.49340134247442435367 0.12667450443544711614
H  -2.93115566820043360607 -4.07191609608994919967 -1.39701083871281728221
C  -3.43673660067018804654 -3.67208844432650183265 -0.51468402567219462274
H  -4.35683367283215883248 -2.16364213682483663703 -1.76140501241258307097
H  -5.53075465505002572542 -3.22923018984863663405 -0.94667003030591256874
O  -2.50738955713368971701 -2.87993980940078264652 0.22020438040235953969
H  -3.60240617000881213627 -2.87208603076248847330 1.96629381484222132137
H  -2.75205510897984639840 -1.33966353658482550948 1.55757573638136537220
H  -4.46461382120610039692 -0.71239252817303810872 0.02669289471712149586
H  -5.47112888441026701258 -1.83516201184520144629 0.96896740336638420565
48
-47.6302332142 converged=true
Ca 1.29966507709250267411 0.92611245982933232401 1.01316510016024463603
B  -0.82101490759863426927 0.85708559693186814332 -0.96439259948352429319
H  0.17134355106409535074 0.41946356846826937659 -1.54276740217223684581
H  -1.43312895306708121268 1.57415997252204298285 -1.71121049079652509661
H  -1.59137593234102592277 -0.01817981480369203900 -0.52291652947018907316
H  -0.46637471571121741354 1.52754418673713754373 0.02327848501389177122
B  1.80119062958504483341 1.99895097732086313158 3.19519159856502099615
H  0.93985295436806393088 2.37855580345272832332 2.31826147400500470752
H  2.56423777864642454816 1.10814921053994175359 2.74109353966596058783
H  2.45208443955735555519 2.95357503353367256693 3.49099232639074275042
H  1.20212318654379979321 1.55713430286821985504 4.13745358221764725215
C  4.34775036448885732199 3.23584947088817775906 0.58025060908014447492
C  4.15870857611175104296 1.87519729111346422634 -0.11305230939821851732
C  3.14450031237445015719 4.06101000703741021880 0.07965640951802128999
H  2.98112607764544224054 3.25357874370148669740 -1.93909893277677447543
H  1.42085241200918144244 3.24878386046799993991 -1.04534860397999351811
C  2.50346418307576135120 3.13151801468089718838 -0.95607279179373405587
H  2.44268519111534487820 4.24110331351613289996 0.89875107962850531163
H  3.44437584488640835545 5.00946818129059767699 -0.35978096073801085764
O  2.77832690002011162278 1.82015848673616398301 -0.47025305773714376478
H  4.76157127480712727419 1.81827785267440300565 -1.03115938270039397828
H  4.38139155671841340478 1.02396815998681445237 0.53811210973241319078
H  4.30666929683263965956 3.11996511975934831540 1.66412936460818539075
H  5.29752794491257805731 3.68816312661113698823 0.30156485415474715284
Ca -0.94208089706909958760 -1.80015363837412301073 -1.11265135294059680504
B  0.99676862624895135045 -1.63537428425492903372 1.09638291606054960603
H  0.15334205286394461676 -0.96076119290497985492 1.68336191424689540774
H  1.51221648414129705706 -2.39380344191625704653 1.87472446856703411910
H  1.88757918545745551064 -0.97169464475296940531 0.52991850567354559232
H  0.44718358133328073301 -2.30315033564069393535 0.20083292468207142312
B  -0.98571392805246194069 -2.74842130580663557282 -3.38040147658035428080
H  -0.40406321792795985015 -3.30671662506870633891 -2.37741015164516067415
H  -1.68544513286631647553 -1.76638713073808961695 -3.02243699943045696088
H  -1.69345986574435891647 -3.56675175803294575161 -3.88228241864511591785
H  -0.13579437543332165128 -2.36786118542328560821 -4.13831390406355836831
C  -4.39815338945890310640 -1.76511986559221223381 0.57886926611263667120
C  -3.17844894240790010187 -2.52724129297925648174 1.12564740311158617558
C  -4.61829444751968321015 -2.39610887238085323858 -0.81137783640646754524
H  -4.01924832544089749575 -4.44542896808749343762 -0.36940949851685217498
H  -3.20960816335570431335 -3.76885655099075567165 -1.82560561531833664972
C  -3.59868774281272596482 -3.53993613761268743900 -0.83052403042667444222
H  -4.37804975578167621109 -1.67384567026290875802 -1.59642436598139947357
H  -5.63440896527084866818 -2.75900999253144663115 -0.94731621419610601009
O  -2.52452086212190396353 -3.06807603591389987940 -0.02135166721882382490
H  -3.49611005698336541059 -3.35764034887332529777 1.77311714623626470733
H  -2.46958499727476388230 -1.88414752480631930709 1.65679305359442552437
H  -4.17180455171524400271 -0.70218037536476385352 0.48404807626999113435
H  -5.26258565067813677274 -1.89349404347429461914 1.22737403027229197150
48
-47.6293857107 converged=true
Ca 1.25316697522473097237 1.02020282031713871440 1.58841648151013714596
B  -0.95969068261047285606 1.40362581903007455075 -0.17691915465479018943
H  -0.09860199115502431277 0.94087298847375278044 -0.92203112336901149604
H  -1.49841085100223647686 2.33210277014525635408 -0.71943860959536276578
H  -1.82929452516042800880 0.58505640029752981057 0.18110323787905438508
H  -0.42735554457607277667 1.81450206416712722657 0.87121183405518254350
B  2.13607715591469649041 2.03636811565555131409 3.66982482048949654185
H  2.46997990674363387953 0.92162151640022149657 3.12131973339410562218
H  1.19294268346619403154 2.59365461508415817704 3.05184188308684856139
H  1.78103170489050599556 1.79324623363713153701 4.78216577061846948027
H  3.09446384801182228230 2.75969857530854900673 3.65467835149736997025
C  3.71255400923061351648 3.63527251511166538123 -1.12620989740220123210
C  2.62158628352492417690 3.35334478683287251499 -0.07831378311149506111
C  4.67228532324118450703 2.43753868467018852684 -0.97244180158729287555
H  4.50095020173927551355 2.12480172669142808317 1.17856944638054317309
H  4.26288419670048845944 0.62067808038895666556 0.22242971460138707962
C  4.10321772697142073127 1.70131423237955625716 0.24483108815291393379
H  4.61600338837945667336 1.79251960745956195886 -1.85373453156553757992
H  5.70216415180380398198 2.74757138310406201498 -0.81171604115971907056
O  2.70171896452963045121 1.95327832009378754563 0.18525377642270837719
H  2.82672279317336494486 3.89860925953231163277 0.85453643059872474996
H  1.61172632632871892788 3.58077017787892737388 -0.43419916161365479379
H  3.28233296656773276823 3.65344543472771032810 -2.12845218002861535922
H  4.20826966046257133769 4.58383886768271420209 -0.92918524584502626418
Ca -1.26258358253996938458 -1.12872629525608703105 -0.73244441570590712587
B  0.76894778351605941324 -1.57211597430810523512 1.24339513843754945199
H  -0.02770675328270701815 -0.99903123823777828516 1.98361874405008542510
H  1.35013054631815743178 -2.42183294281812155901 1.86542771266743345748
H  1.60709305819617864763 -0.82189822850919691533 0.70526701527165247541
H  0.15210548730773454373 -2.11921690823458996888 0.31056904898526183079
B  -1.60623176851397264642 -1.67104109824513646920 -3.13681416179130945210
H  -0.85939439208610901577 -2.31111436993114738314 -2.30702928000720097756
H  -2.33797206288646464145 -0.83283992631599235157 -2.55018959372186682089
H  -2.29777826304154286774 -2.47315951762732488817 -3.68528750532127657991
H  -0.89226012309737723349 -1.09365217632360267608 -3.91043359101202403494
C  -4.58098370885401084962 -3.06332783698906929715 -1.15131106745913802669
C  -4.31943720348732274061 -1.96205313502098022127 -0.10907222934478147391
C  -3.55067891175130290193 -4.15150834165851989610 -0.78561798231882995491
H  -3.52927453130946844340 -3.90569484126747878960 1.38072056423034972283
H  -1.88593006516088412816 -3.89944738006620816861 0.65054627474020765288
C  -2.93001480929871727099 -3.61091059612001075152 0.50698999040989956022
H  -2.78407453756697798042 -4.22219224786092262036 -1.56214951260269208078
H  -4.01003908546929555001 -5.12580329367022891063 -0.63594247986927499028
O  -2.99307758923511491034 -2.19442549952697474325 0.36263136252738886744
H  -5.01480265592214813353 -2.05432288447712529944 0.73806496432598434065
H  -4.36573691776542105458 -0.95153139176418810585 -0.52725344874899149339
H  -4.39664607942215202030 -2.68616931442121043005 -2.15820545194338331285
H  -5.60347442728803901701 -3.42991246314218134472 -1.08490372219052710889
48
-47.6292744226 converged=true
Ca 1.23284639574289944797 1.07370146409451550085 1.65413883284075002855
B  -1.00055656377335000506 1.41703644218528745924 -0.12223218886928161053
H  -0.13439496160059363761 0.96486350522048713874 -0.86795967036616361590
H  -1.56597740125296058800 2.32450247226618555985 -0.67306874209202205428
H  -1.84713289362778398939 0.58275544801968248709 0.25423893926899671092
H  -0.47008919234576901358 1.85533355940410338292 0.91568811750619749645
B  2.22104139621312279829 2.02014957871649958321 3.70195300686238981669
H  1.22919845038955322103 2.53258632730531729749 3.06268388697006477273
H  2.60635469363749194827 0.94452817104853747932 3.17607656064952514896
H  3.11342369530456464233 2.81065445520069312479 3.66697038737615121917
H  1.86373546824120106535 1.79906176624372382555 4.82685036839630132732
C  3.65013274218296679408 3.56933887726911525107 -1.23151438474246233135
C  2.58436161461944768902 3.34574564860888834517 -0.14435383514615432454
C  4.61187193247279392239 2.37903666616914133414 -1.03777867022916892026
H  4.49197146282949688612 2.18060872996165011628 1.13022957448334038233
H  4.22919467063728138356 0.62873525626807491573 0.26080238837789987416
C  4.07138866984573422059 1.70943640410191921575 0.22994803266492461202
H  4.53364104448030413863 1.68857207599432124212 -1.88219131813805118369
H  5.64568485143875165022 2.69459298209999653650 -0.91836968505678873154
O  2.66916047471581396877 1.96133767744747355977 0.19075650340221173007
H  2.81252665934688117488 3.93894973173922924303 0.75322818457129514513
H  1.56650036133173498065 3.55655515594844207072 -0.48744517129898484731
H  3.19594374441682838039 3.53567722601226330781 -2.22272033770292321009
H  4.15156432369822514516 4.52576037221499571928 -1.09677337950652198373
Ca -1.23591476151768397962 -1.11357945125629553829 -0.67181783439223263787
B  0.74974888543753903658 -1.51586645358259430871 1.35938386031923075237
H  -0.05813050886030417252 -0.94271054964670053522 2.08728409117321778155
H  1.34180558132406013705 -2.34588417098701595975 1.99755022687727756825
H  1.57808850997248995007 -0.76201098295167712937 0.81124935096277928093
H  0.14456172882702009175 -2.08810329607911171479 0.43403426961257757233
B  -1.49314505755825632782 -1.63550435954736705924 -3.08353557669787514683
H  -0.77199641868377233411 -2.27589116010693182091 -2.23156597846532278595
H  -2.26107878620762559052 -0.81588434958220845683 -2.51727214457301551320
H  -2.14923317175770067777 -2.44002274077701786226 -3.67069150321002313220
H  -0.75631202450124723757 -1.03754628746623511759 -3.81916029373328003160
C  -4.55302454445263471428 -3.02534768104924944865 -1.21465476527593763123
C  -4.30228921720846191334 -1.95889274480998243355 -0.13424743284007870092
C  -3.53410324585740553971 -4.13020357659639625325 -0.86753943064105443206
H  -3.54543990466094038894 -3.95282076913285873587 1.30554868136110324706
H  -1.89083322525197150554 -3.93271908669168457351 0.60152651051460581666
C  -2.93106400606356576333 -3.63401369338774493656 0.45096142138249700748
H  -2.75577971242972141752 -4.18066653202294702396 -1.63392423351872784210
H  -4.00067964561917754907 -5.10616114311566615669 -0.75583235706725859782
O  -2.98468513875216867604 -2.21335836358473914132 0.35041509097154915908
H  -5.01131574111507749336 -2.07391810205848914350 0.69866240597309248184
H  -4.33690877404098973358 -0.93546778372268502011 -0.52099828895754318747
H  -4.35100862206710559121 -2.61771307838131939150 -2.20616311727634917261
H  -5.57827328191922600098 -3.38815758312091253046 -1.17572541640972350052
48
-47.6292169319 converged=true
Ca 1.28110082123120005981 1.03093422938847334436 1.70406846639369380370
B  -0.95949547994288686414 1.48349007074941319217 -0.03782048067546466691
H  -0.10615831068443197516 1.02190450299926305355 -0.79251260456978056546
H  -1.48288950488112392101 2.43155101737328305234 -0.56113239886451893312
H  -1.84243326602033041794 0.67221190683819576073 0.30378656915637847202
H  -0.42044072988344161068 1.86413626155669742701 1.01826048750846509527
B  2.41909386581531515859 1.88538338002226057988 3.71678226327141159047
H  1.31017845250432229953 2.32431945085791857863 3.23444359597168595855
H  2.83190454302959082611 0.87713773733511579689 3.08829053280310494856
H  3.22235421202633043336 2.76120428950186180828 3.61589389988818910027
H  2.23115517316252853774 1.58125863777178166103 4.86313675029911074432
C  3.44476765889950575783 3.71215894404200374979 -1.20097829995991522978
C  2.51628439759218780480 3.41331851946095632400 -0.01085506140118748519
C  4.39672421606210939160 2.49866833854001857418 -1.22365900983162267934
H  4.54028798452179405132 2.12549355610204537825 0.91973538779272212551
H  4.13854382605883941437 0.65294712165168655726 -0.03077772749611812700
C  4.00186008585354713318 1.73436348748726931746 0.04422823858715328738
H  4.20003348031133860729 1.88036407791477255813 -2.10394688196908052902
H  5.44403831899175383313 2.79111704755283707158 -1.20915493847231991786
O  2.61133108814476511128 2.00527846993899183659 0.20001115649062264912
H  2.86614631907796368893 3.92857329128519827677 0.89562881049319031934
H  1.46879706752854599650 3.66350061838825658000 -0.20674547720739874790
H  2.87139229811294693917 3.76486697000905312649 -2.12746227353037520302
H  3.97980899301099677601 4.64837165238979199700 -1.05411992959018152582
Ca -1.25054663448083069888 -1.03577302768699275326 -0.63910012016520700850
B  0.70494257455064934792 -1.53286365536374336038 1.39333386167352091256
H  -0.06636796096570844739 -0.94091020950595272154 2.14545534638411750095
H  1.26939483866970848069 -2.40129808585301551815 2.00483376782779298964
H  1.55736035457407084870 -0.80410551591742462918 0.84818108766171396162
H  0.06184379290461821527 -2.05831071053334735410 0.46580611938412574968
B  -1.38503517118786101392 -1.64589387699337108550 -3.05149325492766365642
H  -2.13264879605799784201 -0.80716777134033390606 -2.42410565734681293648
H  -0.66351571000916953480 -2.30562030367084647153 -2.26008681321904747463
H  -0.68386457130917333025 -1.01875239216546442655 -3.78464185462750446476
H  -2.09806803149927212360 -2.40150635419293800865 -3.65336900896711869180
C  -4.57535178397475750245 -2.91581664499060844165 -1.27016836654053322242
C  -4.34586686753059936450 -1.86075019045418588171 -0.17397231246302899410
C  -3.56954506080632905096 -4.02836390842934566336 -0.90963037902854304573
H  -3.63165168965809082025 -3.87152106788003091964 1.26417922918527936282
H  -1.96075267466316649489 -3.85200245539054630939 0.59973204266050750277
C  -2.99587187617938432993 -3.54732984752493862857 0.42745994372695084174
H  -2.77349043018749430445 -4.07497623056665858599 -1.65783089702816699429
H  -4.04269007811122715879 -5.00328203597461129704 -0.81834173827557343817
O  -3.04119022259637405980 -2.12556472027095644250 0.33927532528278470103
H  -5.07490918581634087303 -1.98055080017585960483 0.64078737975542121585
H  -4.36705581141067522566 -0.83356659023563883792 -0.55162065351423805737
H  -4.34819782650920227951 -2.49969936380825785704 -2.25267165008987113595
H  -5.60273412756733080187 -3.27448354329648605443 -1.25898493883986417607
48
-47.6291215815 converged=true
Ca 1.20950902451252595426 1.02886163730704383035 1.44357273359570448257
B  -0.93700844664733795586 1.41211759277973691873 -0.34747161670650644760
H  -0.06342438474629899514 0.92721183628548609068 -1.06337877323781015981
H  -1.46766581801838880139 2.32212487549534385423 -0.92790742468816822530
H  -1.81157524576022144203 0.60405243773495853610 0.02213680975227559980
H  -0.42225779403337798668 1.85682198202084092209 0.69562393467954108939
B  1.92207823832856838919 2.04992438714561542312 3.61542733345642686160
H  2.26645158368232335633 0.93810141380209099982 3.06746243212843339165
H  1.09810647097761160396 2.68169029720110652093 2.90555681851218228218
H  1.41246765873075741382 1.78815237692402062564 4.66148678825309659146
H  2.91050207304817076803 2.71747072852515092478 3.75450150806338234233
C  3.92115645008009661154 3.63207398773939305059 -1.05505321267467766511
C  2.70127351522390890537 3.35504788322647584664 -0.15899392249656457698
C  4.87946227075363747616 2.47033848857700499835 -0.72141308466824938250
H  4.41570993521322474606 2.23015342565103447114 1.39548427336735092474
H  4.35195535431566948859 0.68606250583724925907 0.47625354195586838690
C  4.16373367824248230562 1.76145909174734094371 0.43307392001555533589
H  4.96362708532802177075 1.79261168687543293032 -1.57551893777602325386
H  5.86849112805347949973 2.81707746851747709016 -0.43124512485404309370
O  2.77861877187935890632 1.96845156998614578825 0.16879197053777647564
H  2.75969963517939032016 3.93950515036746962139 0.77084474382742440568
H  1.74600917515302755945 3.53875568319240940696 -0.66090559708983487308
H  3.63558919336988939364 3.60109876886546986796 -2.10738484830682804017
H  4.36040673203595297025 4.60172806485662722054 -0.82886522457822797705
Ca -1.32318441282835053130 -1.13998590459454973711 -0.83113031734602671463
B  0.75942378247361919108 -1.57890177016743238347 1.08928818249520187322
H  -0.07717313728911409654 -1.03880561498424817124 1.80999428696825703788
H  1.32960020123612610021 -2.43465473103961738133 1.71322934574766705396
H  1.60546726328302291620 -0.80090626768963635307 0.60572901214839336426
H  0.19141913570107213505 -2.11178713408461549150 0.11800950280266046810
B  -1.78800494632542994466 -1.66595950475353804521 -3.22621121046253778175
H  -1.04667023376665202505 -2.31282428143071916438 -2.39675861106717436044
H  -2.48635485483090556968 -0.79720155848571894186 -2.64335575412597467704
H  -2.51056920176386189070 -2.45723805090747049462 -3.74988351307907796794
H  -1.07019445765089749045 -1.12261686539763450021 -4.02065905487459396284
C  -4.55238138640270229018 -3.20863439916063875046 -1.07022234375052960331
C  -4.35162520091549787082 -2.00036750807657170981 -0.13895309523158241860
C  -3.48152869387593622008 -4.20980882709206039038 -0.59030516968891111329
H  -3.49893015273118734854 -3.75266553040715233891 1.54150681035696623944
H  -1.84794029116223201825 -3.74607845731890654051 0.82879112672871169121
C  -2.90140203281429398530 -3.51883282667977326241 0.64836768691857837865
H  -2.70252550942738389850 -4.32253137958862598822 -1.34933571151001174826
H  -3.90088919448941151558 -5.18392830784747626893 -0.34969513979560107320
O  -3.02285012454165524787 -2.12736062617599408497 0.36499190678107379382
H  -5.05344207304661097169 -2.03964728101203851551 0.70697741103663491735
H  -4.43545611240592485558 -1.03856470626605279506 -0.65478362758448571679
H  -4.37113155902440375655 -2.92404089407283818147 -2.10763270190838047924
H  -5.55911010878631106635 -3.61127162043096694433 -0.97715225996017285315
48
-47.6278301442 converged=true
Ca 0.95507705866424741359 1.57055005391665480907 1.04753956398203262879
B  -1.33884952835994930354 1.26607106078052789044 -0.36831776784364983479
H  -0.34068192648793810262 1.55107839268672154098 -1.02652595830795156928
H  -2.12197145001183207214 2.17759975254474014150 -0.41783268975698417691
H  -1.91408268436906481291 0.21948698743360212093 -0.72638949733618207727
H  -1.01699940444039427234 1.08728399414928422750 0.82131504947290578933
B  0.99781385208682649157 3.23386474151718106285 2.88675333356309193888
H  1.59431002074738725760 2.09430020623565305016 2.86238431975859208833
H  0.44672394479358784602 3.49297871178016183791 1.78623815830153631623
H  0.16213140988533808473 3.17987903708894315002 3.73598140107881704353
H  1.81896945803375875705 4.07815653816916690033 3.12088204581701589291
C  4.68661436406990272729 1.90190551104803118321 0.15324395631992959732
C  3.58591963073729314004 1.55015083275138221275 -0.86288587749048406561
C  4.26374879581935406492 3.29260903829746798266 0.66940629652983663078
H  3.39988822658794065390 4.09896085812266619541 -1.16295588852568698712
H  2.31839377588869677282 4.26596377994956732493 0.26383993779842457306
C  3.06642419530091370206 3.63569251249676606008 -0.22296424987782020866
H  3.94039477337321297767 3.22656670968676317912 1.71198709870752274753
H  5.05866264841355839366 4.02922536741339953892 0.57934078527116439350
O  2.47315094856113670829 2.37357815129153326694 -0.51678108506390363353
H  3.90424672609645018184 1.80147791439210425146 -1.88519033918094613966
H  3.27009315997798477582 0.50329378476619535121 -0.81250923881947634264
H  4.69649524503249349294 1.17852920153741758114 0.96966240091292343894
H  5.66539643209332055562 1.92285002510671332310 -0.32202211239746353355
Ca -0.94036592837573840242 -1.48429999867732420604 -0.92991735540221331924
B  1.23920238030740392787 -1.25311271834127846425 0.67618421356456093196
H  0.19508463128020667177 -1.56720204518617212130 1.24379461952393777224
H  2.01913789938523091649 -2.16631348429579606574 0.74313046735127386011
H  1.78297875961800755817 -0.22459666747800699493 1.12491356065779157802
H  1.00732209004426120913 -1.02028061707158390625 -0.52464845881883559464
B  -0.84804893833654726443 -2.83073145391071667731 -3.01765607538667346432
H  -1.51968610991390340459 -1.75175981969804039906 -2.81584791818333091129
H  -0.27939091174045144195 -3.22575441622809311326 -1.96754257917585495541
H  -0.01892747693327245101 -2.58560130529006348965 -3.83919264416865102518
H  -1.61092818823201877620 -3.67880434795050748065 -3.39236678427837334837
C  -4.64079664309680417489 -2.18736002911574978214 -0.16595205038828975130
C  -3.55314975421325485172 -2.00587340470281416671 0.90715614061560689851
C  -4.16214911147825183946 -3.42514122648904573154 -0.95220294297895213820
H  -3.25331196556678037268 -4.55134977839526300158 0.67861723796265549513
H  -2.17330570428725389220 -4.37403104590005309404 -0.74823913214911441649
C  -2.94562373501483243388 -3.89072632975724896909 -0.14498442129360794572
H  -3.84863995055051955063 -3.13529011839240290271 -1.95886973978371203842
H  -4.92441329218912748900 -4.19820918835522327583 -1.01532523609774183448
O  -2.40704802179775656512 -2.69095842336050949939 0.40432380588012017952
H  -3.85699930168424742760 -2.47702520468211906390 1.85340118175610335527
H  -3.28348225979440533351 -0.95857425217834490994 1.07632267683012150528
H  -4.68206893440420479635 -1.31362442719418504034 -0.81783233861696691402
H  -5.61682221572167073020 -2.34454997263651554462 0.28896211311895642071
