18
Conformer #1, E=-458.11929002971294
O  -0.7537581 -1.7408379  0.2609576
H  -1.5610525 -1.1824148  0.1912682
H  -1.0461648 -2.6210101  0.5131007
O   2.7667144 -0.0157151 -0.1403434
H   3.3182143 -0.7960819 -0.2429748
H   2.0781049 -0.0698367 -0.8403830
O   0.5391263 -0.1828309 -1.6265123
H   0.1435067  0.6310006 -1.2699668
H   0.1376306 -0.8942323 -1.1003241
O  -0.5429250  1.7627846 -0.0056656
H  -0.3777187  2.6906170  0.1788995
H  -0.0704061  1.2412530  0.6960679
O   0.7277075  0.1312879  1.6146425
H   0.2408869 -0.6450370  1.2814311
H   1.5815743  0.1163748  1.1341031
O  -2.6898755  0.0807051 -0.0760807
H  -3.1318341  0.1438841 -0.9283266
H  -2.0586235  0.8236662 -0.0414445
18
Conformer #2, E=-458.11914097425995
O  -0.5870378 -1.7086251  0.6503675
H  -1.2502630 -1.1002079  1.0477897
H  -0.8748069 -2.6030852  0.8524123
O   1.4898829  0.0982228  0.8923364
H   0.8892718 -0.6655442  0.9261469
H   1.9249481  0.0346111  0.0162583
O   2.1719070 -0.1597987 -1.6949445
H   2.5402568 -0.9646906 -2.0690862
H   1.2037828 -0.1897334 -1.8744156
O  -0.3973272  1.7917702  0.1742234
H  -0.0767073  2.6920330  0.0798796
H   0.3635300  1.2475329  0.5078648
O  -0.4994642 -0.2422825 -1.6738237
H  -0.6250072  0.6018958 -1.2072019
H  -0.5695439 -0.9112565 -0.9688698
O  -2.1601661  0.2465422  1.5939397
H  -1.6987952  0.9402591  1.0898631
H  -2.1091256  0.5081969  2.5184456
18
Conformer #3, E=-458.119495912673
O  -0.5393754 -1.7040990  0.7134473
H  -1.2101540 -1.1097853  1.1193321
H  -0.6776310 -2.5786557  1.0865045
O   1.5510759  0.0698252  0.8533001
H   0.9326585 -0.6805535  0.9161648
H   1.9608237 -0.0269704 -0.0309326
O   2.1528221 -0.1996526 -1.7624621
H   1.1819260 -0.2553412 -1.9055601
H   2.4726554  0.4956918 -2.3436808
O  -0.3540589  1.7832488  0.2941674
H  -0.1072033  2.6970264  0.4575963
H   0.4158603  1.2213336  0.5791940
O  -0.5309989 -0.2155311 -1.6182286
H  -0.6020666  0.6163384 -1.1220194
H  -0.5702957 -0.9065769 -0.9361431
O  -2.2218228  0.2222651  1.5176198
H  -3.0674368  0.3073738  1.0668906
H  -1.6441075  0.9176507  1.1468786
18
Conformer #4, E=-458.12096825279497
O  -0.7567703 -0.1472412  2.6749250
H  -1.6541604 -0.1238661  3.0177864
H  -0.6756650  0.6166870  2.0591675
O   1.8740655  0.3860273 -0.2240614
H   2.7795333  0.7072631 -0.2297235
H   1.5670034  0.3782844 -1.1585828
O   0.6704762  0.2198402 -2.6151401
H   0.8341194 -0.5389185 -3.1835879
H  -0.2034948  0.0719529 -2.2078475
O  -0.4467731  1.5712763  0.6458241
H  -0.9956260  1.0960069  0.0005684
H   0.4621603  1.2930909  0.4308721
O   0.1589383 -1.6158118  0.6126994
H   0.9265475 -1.0606727  0.3967605
H  -0.1649039 -1.2591338  1.4654483
O  -1.4781866 -0.3758338 -1.0304590
H  -0.9154049 -0.9426806 -0.4385983
H  -2.3053544 -0.8452822 -1.1647921
18
Conformer #5, E=-458.11965384176
O  -0.5080259  0.0733919  2.6487701
H   0.1623504  0.3646371  3.2730580
H  -0.5553000  0.7754148  1.9549798
O   1.7504449  0.2788504 -0.2369668
H   1.3703174 -0.5449262  0.1103789
H   1.5347901  0.2682569 -1.1912639
O   0.6020152  0.2555895 -2.6960595
H  -0.2370401  0.0095604 -2.2653143
H   0.4585206  1.1206051 -3.0904148
O  -0.4197341  1.6413362  0.5087201
H  -1.0286346  1.1512534 -0.0639626
H   0.4680088  1.2849353  0.2673805
O   0.1172002 -1.7244561  0.7939209
H  -0.1265306 -1.1617421  1.5675671
H   0.2039129 -2.6243402  1.1200031
O  -1.4783907 -0.4443662 -1.0225284
H  -0.9540078 -1.0126566 -0.4255197
H  -2.3044984 -0.9063526 -1.1911185
18
Conformer #6, E=-458.122561609125
O   1.1116449  0.4019090  1.4072360
H   1.7564320  0.8314496  1.9752662
H   1.6248147 -0.0546844  0.6956962
O   2.3177563 -0.7990083 -0.6319237
H   1.7663702 -0.4065868 -1.3495579
H   2.1599245 -1.7464662 -0.6713988
O   0.6650007  0.3664087 -2.3817466
H   1.0433376  1.0335037 -2.9599280
H   0.1404619  0.8631418 -1.7031442
O  -0.6069959  1.5850716 -0.4031624
H  -1.4136723  1.0391177 -0.2882512
H  -0.0123676  1.2961307  0.3126268
O  -0.9816441 -1.2924510  1.9496293
H  -0.2046594 -0.7168043  1.8168444
H  -1.3053796 -1.1021780  2.8345425
O  -2.5613246 -0.2300905  0.0178877
H  -2.0633860 -0.6969439  0.7243945
H  -2.6099105 -0.8450820 -0.7191430
18
Conformer #8, E=-458.12006107446
O  -0.8268212 -1.5833662  0.2928316
H  -1.6000812 -0.9984130  0.1449564
H  -0.3470683 -1.1633716  1.0388647
O   2.4894711  0.3338761  0.1942502
H   3.3288003 -0.1347012  0.1749178
H   1.9744419 -0.0017634 -0.5594569
O   0.6747613 -0.6393241 -1.6161400
H   0.4982243 -1.0789115 -2.4510379
H   0.1089432 -1.0907286 -0.9267844
O   0.6384130 -0.2293408  2.1139062
H   1.3523651  0.0541944  1.5063948
H   1.0674279 -0.7052615  2.8299594
O  -0.4524617  1.7511676 -0.9464436
H   0.1029467  2.0667220 -0.2271320
H  -0.0018406  0.9579029 -1.2979214
O  -2.6250429  0.3865007 -0.0721570
H  -1.9353151  0.9834263 -0.4349641
H  -2.9348357  0.8011628  0.7379686