18
Conformer #1, E=-458.355993045668
O  -0.8071677 -1.6702892  0.2705174
H  -1.6578086 -1.1783227  0.1694153
H  -1.0147283 -2.6037417  0.3883834
O   2.8456847 -0.0151282 -0.1495123
H   3.4729938 -0.7395489 -0.2505078
H   2.1399688 -0.1476737 -0.8237155
O   0.5986454 -0.2250139 -1.6376074
H   0.1863438  0.6048068 -1.3349790
H   0.1356551 -0.9111321 -1.1176840
O  -0.5955419  1.7223304  0.0100606
H  -0.5135252  2.6787777  0.0934477
H  -0.0479009  1.3003715  0.7199420
O   0.7930917  0.1327378  1.6429246
H   0.2679008 -0.6403814  1.3577929
H   1.6448358  0.0444104  1.1654609
O  -2.7564249  0.1127241 -0.0224880
H  -3.2864907  0.1539709 -0.8267025
H  -2.1034974  0.8459826 -0.0700842
18
Conformer #2, E=-458.35614458261
O  -0.6234741 -1.6253795  0.7033043
H  -1.3110809 -1.0678553  1.1416467
H  -0.8075815 -2.5473381  0.9137591
O   1.5720082  0.0682975  0.8525591
H   0.9426596 -0.6739008  0.9394555
H   1.9994895 -0.0704830 -0.0187503
O   2.2241817 -0.1987924 -1.7789822
H   2.6524625 -0.9451312 -2.2123269
H   1.2548703 -0.2917562 -1.9279113
O  -0.4078354  1.7491689  0.2424827
H  -0.2406522  2.6977490  0.2127954
H   0.4263284  1.2948466  0.5240663
O  -0.4768711 -0.2653288 -1.7147930
H  -0.5992349  0.5919396 -1.2671182
H  -0.6062944 -0.9151362 -0.9957741
O  -2.2404400  0.2984946  1.5721066
H  -1.6672899  0.9916412  1.1749650
H  -2.3442225  0.5204940  2.5044765
18
Conformer #3, E=-458.356075408611
O  -0.5507728 -1.6427737  0.7227697
H  -1.2765047 -1.1151387  1.1355719
H  -0.6839600 -2.5676426  0.9576039
O   1.6233141  0.0795397  0.8512873
H   1.0031443 -0.6707752  0.9378911
H   2.0169084 -0.0239123 -0.0406425
O   2.1950601 -0.2717245 -1.8027543
H   1.2198890 -0.2225826 -1.9315569
H   2.5884042  0.4003624 -2.3704195
O  -0.3991379  1.7437994  0.3544867
H  -0.2471505  2.6952761  0.3630718
H   0.4461699  1.2911944  0.6049425
O  -0.5047746 -0.2092165 -1.6607730
H  -0.6135216  0.6242128 -1.1667103
H  -0.5957581 -0.8953858 -0.9707254
O  -2.2341086  0.2210355  1.6080678
H  -3.1307694  0.2879838  1.2602847
H  -1.7044817  0.9281763  1.1772876
18
Conformer #4, E=-458.356583985779
O  -0.6994624 -0.0690915  2.7598759
H  -1.5589349 -0.0829181  3.1951402
H  -0.7248422  0.6517910  2.0889233
O   1.8297788  0.3211078 -0.2421496
H   2.7672938  0.5269986 -0.1581397
H   1.6016239  0.3245622 -1.2032507
O   0.6749945  0.3022235 -2.6358877
H   0.9079846 -0.3073587 -3.3452634
H  -0.1786252 -0.0068855 -2.2591464
O  -0.4833847  1.5921843  0.6393754
H  -1.0158408  1.0980134 -0.0110033
H   0.4357726  1.3527350  0.4087351
O   0.1208763 -1.6591640  0.6983465
H   0.8919762 -1.1132597  0.4482924
H  -0.1978424 -1.2655974  1.5380499
O  -1.4110044 -0.4134715 -1.0959125
H  -0.9760081 -1.0278540 -0.4514218
H  -2.2829141 -0.7652470 -1.3072979
18
Conformer #5, E=-458.356345478714
O  -0.6179880  0.0161925  2.6983575
H  -0.0862298  0.2706351  3.4609670
H  -0.5616242  0.7537687  2.0440737
O   1.8127297  0.3287186 -0.3037453
H   1.4534654 -0.4956991  0.0727538
H   1.5490348  0.3092484 -1.2473434
O   0.5973271  0.1749656 -2.7529958
H  -0.2474291 -0.0124426 -2.2903354
H   0.4505076  0.9563840 -3.2978382
O  -0.4178252  1.6649735  0.5853265
H  -1.0153050  1.1740117 -0.0069134
H   0.4716817  1.3631594  0.2963508
O   0.1575823 -1.6562735  0.7965480
H  -0.0927677 -1.2019712  1.6388263
H   0.2516850 -2.5979283  0.9796495
O  -1.4038121 -0.4270863 -1.0291855
H  -0.9584744 -1.0393890 -0.3995155
H  -2.2865027 -0.7743535 -1.2004982
18
Conformer #6, E=-458.356677922455
O   1.0718733  0.3302927  1.3421155
H   1.6349637  0.7999879  1.9680990
H   1.6599555 -0.1203153  0.6810709
O   2.4315711 -0.7471101 -0.6458168
H   1.9616047 -0.3502766 -1.4201824
H   2.4528279 -1.7011981 -0.7819925
O   0.9450991  0.4713347 -2.4855811
H   1.2787062  1.1838339 -3.0420968
H   0.2841759  0.8680702 -1.8629044
O  -0.6569224  1.3697759 -0.5684902
H  -1.4691484  0.8390389 -0.4158333
H  -0.0690175  1.1557224  0.1820610
O  -1.1131963 -1.0731635  2.0721573
H  -0.2701436 -0.5894791  1.9243284
H  -1.2602277 -1.1135512  3.0234144
O  -2.7523033 -0.2121365  0.1509439
H  -2.2544118 -0.6116378  0.9023056
H  -3.0344325 -0.9402187 -0.4142184
18
Conformer #8, E=-458.357566411703
O  -0.8787458 -1.5137374  0.3324429
H  -1.6012435 -0.8482527  0.3301352
H  -0.3289354 -1.3254501  1.1242602
O   2.5247235  0.2509699  0.3758119
H   3.4198931 -0.0775750  0.2338998
H   1.9974432 -0.0121919 -0.4102720
O   0.6960059 -0.4615337 -1.4829463
H   0.8380400 -0.9830186 -2.2814552
H   0.0953832 -0.9791447 -0.8748026
O   0.8648652 -0.7419221  2.2448443
H   1.5846178 -0.3904602  1.6721968
H   1.2783958 -1.1881915  2.9913721
O  -0.7578113  1.8221557 -1.3874159
H  -0.2452821  2.5231584 -0.9682028
H  -0.1429648  1.0666856 -1.5184074
O  -2.6559406  0.4996663 -0.0132912
H  -2.0310298  1.1102663 -0.4687304
H  -3.0877865  1.0049457  0.6845893