18
Conformer #1, E=-458.090824330602
O  -0.8071677 -1.6702894  0.2705175
H  -1.6578084 -1.1783226  0.1694153
H  -1.0147285 -2.6037417  0.3883837
O   2.8456845 -0.0151283 -0.1495123
H   3.4729937 -0.7395488 -0.2505077
H   2.1399687 -0.1476741 -0.8237154
O   0.5986455 -0.2250139 -1.6376072
H   0.1863438  0.6048069 -1.3349790
H   0.1356551 -0.9111322 -1.1176839
O  -0.5955418  1.7223304  0.0100607
H  -0.5135250  2.6787777  0.0934478
H  -0.0479010  1.3003713  0.7199421
O   0.7930918  0.1327381  1.6429243
H   0.2679007 -0.6403812  1.3577928
H   1.6448360  0.0444106  1.1654606
O  -2.7564250  0.1127242 -0.0224880
H  -3.2864905  0.1539704 -0.8267027
H  -2.1034977  0.8459830 -0.0700843
18
Conformer #2, E=-458.09123059342
O  -0.6234743 -1.6253792  0.7033044
H  -1.3110813 -1.0678552  1.1416468
H  -0.8075816 -2.5473379  0.9137589
O   1.5720083  0.0682974  0.8525592
H   0.9426597 -0.6739009  0.9394557
H   1.9994895 -0.0704830 -0.0187503
O   2.2241818 -0.1987924 -1.7789824
H   2.6524627 -0.9451313 -2.2123269
H   1.2548704 -0.2917564 -1.9279114
O  -0.4078353  1.7491689  0.2424827
H  -0.2406522  2.6977490  0.2127952
H   0.4263285  1.2948467  0.5240663
O  -0.4768711 -0.2653288 -1.7147931
H  -0.5992348  0.5919395 -1.2671183
H  -0.6062945 -0.9151362 -0.9957744
O  -2.2404401  0.2984947  1.5721068
H  -1.6672900  0.9916412  1.1749651
H  -2.3442220  0.5204939  2.5044768
18
Conformer #3, E=-458.09090172116197
O  -0.5507728 -1.6427737  0.7227697
H  -1.2765047 -1.1151387  1.1355720
H  -0.6839600 -2.5676426  0.9576041
O   1.6233141  0.0795396  0.8512872
H   1.0031443 -0.6707752  0.9378912
H   2.0169084 -0.0239123 -0.0406426
O   2.1950601 -0.2717246 -1.8027543
H   1.2198890 -0.2225828 -1.9315569
H   2.5884041  0.4003625 -2.3704195
O  -0.3991378  1.7437995  0.3544868
H  -0.2471503  2.6952762  0.3630720
H   0.4461699  1.2911944  0.6049424
O  -0.5047746 -0.2092166 -1.6607730
H  -0.6135215  0.6242129 -1.1667105
H  -0.5957582 -0.8953857 -0.9707253
O  -2.2341085  0.2210356  1.6080678
H  -3.1307694  0.2879836  1.2602845
H  -1.7044818  0.9281765  1.1772875
18
Conformer #4, E=-458.09165000023603
O  -0.6994623 -0.0690914  2.7598758
H  -1.5589350 -0.0829183  3.1951400
H  -0.7248423  0.6517912  2.0889232
O   1.8297787  0.3211078 -0.2421496
H   2.7672937  0.5269985 -0.1581396
H   1.6016239  0.3245622 -1.2032507
O   0.6749945  0.3022235 -2.6358878
H   0.9079845 -0.3073588 -3.3452636
H  -0.1786252 -0.0068856 -2.2591465
O  -0.4833847  1.5921844  0.6393754
H  -1.0158407  1.0980134 -0.0110033
H   0.4357726  1.3527353  0.4087351
O   0.1208764 -1.6591642  0.6983467
H   0.8919763 -1.1132597  0.4482924
H  -0.1978423 -1.2655974  1.5380500
O  -1.4110042 -0.4134715 -1.0959125
H  -0.9760082 -1.0278541 -0.4514218
H  -2.2829141 -0.7652468 -1.3072978
18
Conformer #5, E=-458.09088588153
O  -0.6179882  0.0161923  2.6983576
H  -0.0862298  0.2706346  3.4609671
H  -0.5616243  0.7537686  2.0440739
O   1.8127298  0.3287187 -0.3037455
H   1.4534657 -0.4956991  0.0727539
H   1.5490345  0.3092483 -1.2473435
O   0.5973271  0.1749656 -2.7529959
H  -0.2474292 -0.0124423 -2.2903353
H   0.4505080  0.9563844 -3.2978379
O  -0.4178251  1.6649734  0.5853266
H  -1.0153049  1.1740115 -0.0069132
H   0.4716818  1.3631592  0.2963508
O   0.1575825 -1.6562733  0.7965480
H  -0.0927678 -1.2019712  1.6388264
H   0.2516852 -2.5979281  0.9796492
O  -1.4038121 -0.4270862 -1.0291857
H  -0.9584743 -1.0393889 -0.3995157
H  -2.2865028 -0.7743533 -1.2004982
18
Conformer #6, E=-458.092709214188
O   1.0718735  0.3302927  1.3421157
H   1.6349639  0.7999882  1.9680991
H   1.6599558 -0.1203155  0.6810712
O   2.4315708 -0.7471098 -0.6458173
H   1.9616043 -0.3502766 -1.4201829
H   2.4528273 -1.7011978 -0.7819928
O   0.9450986  0.4713347 -2.4855811
H   1.2787061  1.1838337 -3.0420967
H   0.2841757  0.8680706 -1.8629044
O  -0.6569225  1.3697761 -0.5684900
H  -1.4691484  0.8390391 -0.4158330
H  -0.0690173  1.1557224  0.1820609
O  -1.1131962 -1.0731637  2.0721573
H  -0.2701436 -0.5894791  1.9243284
H  -1.2602277 -1.1135508  3.0234144
O  -2.7523033 -0.2121367  0.1509440
H  -2.2544117 -0.6116378  0.9023056
H  -3.0344317 -0.9402190 -0.4142185
18
Conformer #8, E=-458.092831122084
O  -0.8787460 -1.5137370  0.3324433
H  -1.6012436 -0.8482522  0.3301359
H  -0.3289356 -1.3254503  1.1242608
O   2.5247244  0.2509689  0.3758132
H   3.4198937 -0.0775764  0.2339001
H   1.9974436 -0.0121915 -0.4102708
O   0.6960063 -0.4615325 -1.4829461
H   0.8380407 -0.9830185 -2.2814541
H   0.0953838 -0.9791429 -0.8748018
O   0.8648656 -0.7419236  2.2448450
H   1.5846185 -0.3904618  1.6721977
H   1.2783961 -1.1881932  2.9913727
O  -0.7578129  1.8221554 -1.3874186
H  -0.2452831  2.5231590 -0.9682076
H  -0.1429662  1.0666852 -1.5184093
O  -2.6559402  0.4996668 -0.0132908
H  -2.0310303  1.1102671 -0.4687309
H  -3.0877865  1.0049464  0.6845893
18
Conformer #12, E=-458.09152683544005
O  -2.2400607 -1.0208971 -0.6518585
H  -1.6681780 -1.1020205  0.1514128
H  -3.1047419 -0.7101578 -0.3615135
O   0.4270919  0.9303384  2.7929052
H   1.1147785  0.6935163  2.1392451
H   0.8753204  1.0545624  3.6366056
O  -0.8880609  0.1784567 -2.5904625
H  -0.8619613 -0.3972007 -3.3628659
H  -1.4386533 -0.2747963 -1.9046803
O   1.3438090  1.1837793 -1.5786365
H   0.5176992  0.8327941 -1.9971573
H   1.2702187  2.1448578 -1.5673759
O   1.8486514 -0.0790897  0.6755805
H   1.7220801  0.4157566 -0.1761382
H   2.7413419 -0.4425432  0.6747301
O  -0.5223233 -1.2656875  1.3657841
H   0.3621899 -1.0688353  0.9960100
H  -0.5830322 -0.6271098  2.0964434